# Objective value = 1.9685915560242561e+03
x[0] 1
x[1] 0
x[2] 0
x[3] 1
x[4] 1
x[5] 1
x[6] 0
x[7] 1
x[8] 0
x[9] 1
x[10] 0
x[11] 1
x[12] 1
x[13] 0
x[14] 0
x[15] 0
x[16] 1
x[17] 1
x[18] 0
x[19] 1
x[20] 1
x[21] 1
x[22] 1
x[23] 1
x[24] 0
x[25] 1
x[26] 1
x[27] 0
x[28] 1
x[29] 1
x[30] 1
x[31] 1
x[32] 1
x[33] 1
x[34] 0
x[35] 1
x[36] 1
x[37] 1
x[38] 0
x[39] 0
x[40] 0
x[41] 1
x[42] 1
x[43] 0
x[44] 1
x[45] 1
x[46] 1
x[47] 1
x[48] 0
x[49] 1
x[50] 1
x[51] 1
x[52] 1
x[53] 0
x[54] 1
x[55] 1
x[56] 0
x[57] 0
x[58] 0
x[59] 1
x[60] 1
x[61] 1
x[62] 0
x[63] 1
x[64] 0
x[65] 1
x[66] 0
x[67] 0
x[68] 1
x[69] 0
x[70] 1
x[71] 0
x[72] 1
x[73] 1
x[74] 0
x[75] 0
x[76] 1
x[77] 1
x[78] 0
x[79] 1
x[80] 1
x[81] 0
x[82] 0
x[83] 1
x[84] 0
x[85] 1
x[86] 1
x[87] 0
x[88] 0
x[89] 1
x[90] 0
x[91] 0
x[92] 1
x[93] 1
x[94] 1
x[95] 1
x[96] 1
x[97] 1
x[98] 0
x[99] 1
x[100] 1
x[101] 0
x[102] 0
x[103] 0
x[104] 0
x[105] 0
x[106] 0
x[107] 0
x[108] 1
x[109] 0
x[110] 1
x[111] 1
x[112] 0
x[113] 1
x[114] 0
x[115] 0
x[116] 0
x[117] 0
x[118] 0
x[119] 1
x[120] 1
x[121] 0
x[122] 1
x[123] 1
x[124] 0
x[125] 1
x[126] 0
x[127] 0
x[128] 1
x[129] 1
x[130] 0
x[131] 1
x[132] 0
x[133] 0
x[134] 1
x[135] 1
x[136] 1
x[137] 1
x[138] 1
x[139] 1
x[140] 1
x[141] 0
x[142] 1
x[143] 0
x[144] 0
x[145] 0
x[146] 1
x[147] 0
x[148] 1
x[149] 1
x[150] 1
x[151] 1
x[152] 1
x[153] 1
x[154] 1
x[155] 1
x[156] 0
x[157] 0
x[158] 1
x[159] 1
x[160] 0
x[161] 0
x[162] 1
x[163] 1
x[164] 0
x[165] 0
x[166] 1
x[167] 1
x[168] 1
x[169] 1
x[170] 1
x[171] 1
x[172] 1
x[173] 0
x[174] 0
x[175] 1
x[176] 1
x[177] 0
x[178] 1
x[179] 1
x[180] 0
x[181] 1
x[182] 0
x[183] 0
x[184] 1
x[185] 0
x[186] 1
x[187] 0
x[188] 0
x[189] 0
x[190] 1
x[191] 0
x[192] 1
x[193] 1
x[194] 1
x[195] 1
x[196] 1
x[197] 1
x[198] 0
x[199] 1
x[200] 0
x[201] 1
x[202] 1
x[203] 1
x[204] 1
x[205] 1
x[206] 1
x[207] 1
x[208] 1
x[209] 0
x[210] 1
x[211] 0
x[212] 0
x[213] 1
x[214] 1
x[215] 1
x[216] 1
x[217] 0
x[218] 1
x[219] 1
x[220] 1
x[221] 1
x[222] 1
x[223] 0
x[224] 1
x[225] 0
x[226] 0
x[227] 1
x[228] 1
x[229] 0
x[230] 1
x[231] 1
x[232] 1
x[233] 1
x[234] 1
x[235] 1
x[236] 0
x[237] 0
x[238] 1
x[239] 0
x[240] 1
x[241] 1
x[242] 1
x[243] 1
x[244] 1
x[245] 1
x[246] 1
x[247] 1
x[248] 1
x[249] 1
x[250] 1
x[251] 0
x[252] 0
x[253] 1
x[254] 0
x[255] 1
x[256] 1
x[257] 0
x[258] 1
x[259] 1
x[260] 0
x[261] 1
x[262] 0
x[263] 1
x[264] 0
x[265] 1
x[266] 1
x[267] 1
x[268] 1
x[269] 0
x[270] 0
x[271] 1
x[272] 1
x[273] 0
x[274] 1
x[275] 0
x[276] 0
x[277] 0
x[278] 0
x[279] 0
x[280] 0
x[281] 0
x[282] 1
x[283] 0
x[284] 0
x[285] 1
x[286] 1
x[287] 0
x[288] 0
x[289] 0
x[290] 1
x[291] 1
x[292] 1
x[293] 0
x[294] 1
x[295] 1
x[296] 1
x[297] 1
x[298] 0
x[299] 0
x[300] 1
x[301] 0
x[302] 0
x[303] 1
x[304] 1
x[305] 0
x[306] 1
x[307] 0
x[308] 0
x[309] 0
x[310] 1
x[311] 0
x[312] 1
x[313] 0
x[314] 1
x[315] 1
x[316] 0
x[317] 0
x[318] 1
x[319] 0
x[320] 0
x[321] 0
x[322] 0
x[323] 1
x[324] 1
x[325] 0
x[326] 0
x[327] 0
x[328] 0
x[329] 1
x[330] 1
x[331] 0
x[332] 1
x[333] 1
x[334] 1
x[335] 1
x[336] 0
x[337] 0
x[338] 1
x[339] 1
x[340] 1
x[341] 1
x[342] 0
x[343] 0
x[344] 1
x[345] 0
x[346] 0
x[347] 1
x[348] 1
x[349] 0
x[350] 1
x[351] 0
x[352] 1
x[353] 0
x[354] 1
x[355] 1
x[356] 1
x[357] 0
x[358] 1
x[359] 1
x[360] 0
x[361] 1
x[362] 0
x[363] 1
x[364] 1
x[365] 1
x[366] 0
x[367] 0
x[368] 0
x[369] 0
x[370] 0
x[371] 0
x[372] 1
x[373] 1
x[374] 0
x[375] 0
x[376] 0
x[377] 0
x[378] 0
x[379] 1
x[380] 0
x[381] 1
x[382] 1
x[383] 1
x[384] 1
x[385] 1
x[386] 0
x[387] 1
x[388] 1
x[389] 0
x[390] 1
x[391] 1
x[392] 1
x[393] 0
x[394] 0
x[395] 1
x[396] 1
x[397] 1
x[398] 0
x[399] 0
x[400] 0
x[401] 0
x[402] 1
x[403] 1
x[404] 1
x[405] 1
x[406] 0
x[407] 0
x[408] 1
x[409] 0
x[410] 1
x[411] 0
x[412] 1
x[413] 0
x[414] 0
x[415] 1
x[416] 0
x[417] 0
x[418] 0
x[419] 1
x[420] 0
x[421] 0
x[422] 1
x[423] 1
x[424] 0
x[425] 1
x[426] 1
x[427] 0
x[428] 0
x[429] 1
x[430] 1
x[431] 1
x[432] 0
x[433] 0
x[434] 1
x[435] 0
x[436] 1
x[437] 1
x[438] 0
x[439] 1
x[440] 1
x[441] 1
x[442] 1
x[443] 0
x[444] 0
x[445] 1
x[446] 1
x[447] 0
x[448] 1
x[449] 0
x[450] 0
x[451] 1
x[452] 1
x[453] 1
x[454] 0
x[455] 1
x[456] 0
x[457] 1
x[458] 0
x[459] 1
x[460] 1
x[461] 0
x[462] 0
x[463] 0
x[464] 0
x[465] 1
x[466] 1
x[467] 0
x[468] 1
x[469] 0
x[470] 1
x[471] 1
x[472] 1
x[473] 1
x[474] 0
x[475] 1
x[476] 1
x[477] 0
x[478] 1
x[479] 1
x[480] 1
x[481] 1
x[482] 1
x[483] 1
x[484] 1
x[485] 1
x[486] 1
x[487] 1
x[488] 0
x[489] 0
x[490] 1
x[491] 1
x[492] 1
x[493] 1
x[494] 1
x[495] 0
x[496] 1
x[497] 0
x[498] 0
x[499] 0
x[500] 0
x[501] 1
x[502] 1
x[503] 1
x[504] 0
x[505] 1
x[506] 1
x[507] 1
x[508] 0
x[509] 0
x[510] 0
x[511] 0
x[512] 0
x[513] 1
x[514] 1
x[515] 0
x[516] 0
x[517] 1
x[518] 1
x[519] 1
x[520] 0
x[521] 1
x[522] 1
x[523] 1
x[524] 0
x[525] 0
x[526] 1
x[527] 1
x[528] 0
x[529] 0
x[530] 0
x[531] 0
x[532] 1
x[533] 0
x[534] 1
x[535] 1
x[536] 0
x[537] 1
x[538] 1
x[539] 1
x[540] 1
x[541] 0
x[542] 1
x[543] 1
x[544] 0
x[545] 0
x[546] 1
x[547] 0
x[548] 1
x[549] 0
x[550] 1
x[551] 0
x[552] 1
x[553] 1
x[554] 0
x[555] 1
x[556] 1
x[557] 0
x[558] 1
x[559] 1
x[560] 1
x[561] 0
x[562] 1
x[563] 0
x[564] 0
x[565] 0
x[566] 1
x[567] 1
x[568] 1
x[569] 1
x[570] 0
x[571] 1
x[572] 0
x[573] 1
x[574] 0
x[575] 1
x[576] 1
x[577] 0
x[578] 1
x[579] 0
x[580] 1
x[581] 1
x[582] 1
x[583] 0
x[584] 0
x[585] 1
x[586] 0
x[587] 0
x[588] 0
x[589] 1
x[590] 0
x[591] 0
x[592] 0
x[593] 1
x[594] 1
x[595] 0
x[596] 1
x[597] 0
x[598] 1
x[599] 0
x[600] 0
x[601] 0
x[602] 1
x[603] 0
x[604] 1
x[605] 1
x[606] 0
x[607] 1
x[608] 1
x[609] 0
x[610] 1
x[611] 1
x[612] 0
x[613] 1
x[614] 1
x[615] 1
x[616] 1
x[617] 0
x[618] 1
x[619] 0
x[620] 0
x[621] 1
x[622] 0
x[623] 0
x[624] 0
x[625] 1
x[626] 1
x[627] 0
x[628] 1
x[629] 0
x[630] 1
x[631] 0
x[632] 0
x[633] 0
x[634] 0
x[635] 1
x[636] 1
x[637] 0
x[638] 0
x[639] 0
x[640] 1
x[641] 1
x[642] 1
x[643] 0
x[644] 0
x[645] 1
x[646] 1
x[647] 0
x[648] 0
x[649] 1
x[650] 0
x[651] 1
x[652] 0
x[653] 0
x[654] 1
x[655] 0
x[656] 0
x[657] 0
x[658] 0
x[659] 1
x[660] 1
x[661] 0
x[662] 1
x[663] 0
x[664] 1
x[665] 0
x[666] 1
x[667] 1
x[668] 1
x[669] 1
x[670] 0
x[671] 1
x[672] 1
x[673] 0
x[674] 1
x[675] 1
x[676] 0
x[677] 1
x[678] 1
x[679] 1
x[680] 0
x[681] 1
x[682] 1
x[683] 1
x[684] 1
x[685] 0
x[686] 1
x[687] 1
x[688] 1
x[689] 1
x[690] 1
x[691] 1
x[692] 0
x[693] 0
x[694] 1
x[695] 0
x[696] 1
x[697] 1
x[698] 0
x[699] 1
x[700] 0
x[701] 0
x[702] 1
x[703] 1
x[704] 1
x[705] 0
x[706] 1
x[707] 1
x[708] 1
x[709] 1
x[710] 0
x[711] 1
x[712] 0
x[713] 0
x[714] 0
x[715] 1
x[716] 1
x[717] 0
x[718] 1
x[719] 0
x[720] 1
x[721] 1
x[722] 1
x[723] 0
x[724] 0
x[725] 0
x[726] 1
x[727] 1
x[728] 0
x[729] 1
x[730] 0
x[731] 1
x[732] 1
x[733] 1
x[734] 0
x[735] 1
x[736] 1
x[737] 1
x[738] 0
x[739] 1
x[740] 0
x[741] 0
x[742] 1
x[743] 0
x[744] 0
x[745] 1
x[746] 1
x[747] 0
x[748] 0
x[749] 0
x[750] 1
x[751] 0
x[752] 1
x[753] 0
x[754] 1
x[755] 0
x[756] 0
x[757] 0
x[758] 1
x[759] 1
x[760] 0
x[761] 1
x[762] 0
x[763] 1
x[764] 0
x[765] 0
x[766] 0
x[767] 0
x[768] 1
x[769] 1
x[770] 0
x[771] 1
x[772] 1
x[773] 1
x[774] 1
x[775] 1
x[776] 1
x[777] 0
x[778] 0
x[779] 0
x[780] 1
x[781] 1
x[782] 0
x[783] 0
x[784] 1
x[785] 1
x[786] 0
x[787] 1
x[788] 1
x[789] 1
x[790] 1
x[791] 0
x[792] 0
x[793] 1
x[794] 0
x[795] 1
x[796] 1
x[797] 0
x[798] 0
x[799] 0
x[800] 0
x[801] 0
x[802] 1
x[803] 1
x[804] 0
x[805] 1
x[806] 1
x[807] 1
x[808] 0
x[809] 1
x[810] 0
x[811] 0
x[812] 0
x[813] 1
x[814] 1
x[815] 0
x[816] 1
x[817] 0
x[818] 1
x[819] 1
x[820] 1
x[821] 1
x[822] 0
x[823] 1
x[824] 0
x[825] 0
x[826] 0
x[827] 1
x[828] 1
x[829] 1
x[830] 0
x[831] 1
x[832] 0
x[833] 0
x[834] 1
x[835] 1
x[836] 1
x[837] 1
x[838] 0
x[839] 1
x[840] 1
x[841] 0
x[842] 1
x[843] 0
x[844] 1
x[845] 1
x[846] 1
x[847] 0
x[848] 1
x[849] 0
x[850] 1
x[851] 1
x[852] 1
x[853] 1
x[854] 0
x[855] 1
x[856] 1
x[857] 0
x[858] 0
x[859] 1
x[860] 0
x[861] 0
x[862] 0
x[863] 0
x[864] 1
x[865] 0
x[866] 0
x[867] 1
x[868] 1
x[869] 1
x[870] 0
x[871] 1
x[872] 1
x[873] 1
x[874] 0
x[875] 1
x[876] 1
x[877] 1
x[878] 0
x[879] 1
x[880] 0
x[881] 0
x[882] 0
x[883] 0
x[884] 1
x[885] 0
x[886] 0
x[887] 1
x[888] 0
x[889] 0
x[890] 0
x[891] 0
x[892] 1
x[893] 1
x[894] 1
x[895] 0
x[896] 0
x[897] 1
x[898] 1
x[899] 0
x[900] 0
x[901] 0
x[902] 1
x[903] 0
x[904] 1
x[905] 1
x[906] 0
x[907] 0
x[908] 1
x[909] 0
x[910] 0
x[911] 0
x[912] 0
x[913] 0
x[914] 0
x[915] 0
x[916] 1
x[917] 1
x[918] 1
x[919] 1
x[920] 1
x[921] 0
x[922] 1
x[923] 0
x[924] 0
x[925] 1
x[926] 0
x[927] 0
x[928] 1
x[929] 0
x[930] 0
x[931] 1
x[932] 1
x[933] 0
x[934] 0
x[935] 1
x[936] 0
x[937] 1
x[938] 0
x[939] 0
x[940] 1
x[941] 1
x[942] 0
x[943] 1
x[944] 1
x[945] 1
x[946] 1
x[947] 0
x[948] 0
x[949] 0
x[950] 1
x[951] 1
x[952] 1
x[953] 1
x[954] 0
x[955] 1
x[956] 0
x[957] 1
x[958] 1
x[959] 0
x[960] 1
x[961] 1
x[962] 0
x[963] 0
x[964] 1
x[965] 0
x[966] 1
x[967] 0
x[968] 0
x[969] 1
x[970] 1
x[971] 1
x[972] 1
x[973] 1
x[974] 1
x[975] 0
x[976] 0
x[977] 1
x[978] 1
x[979] 1
x[980] 1
x[981] 0
x[982] 0
x[983] 1
x[984] 1
x[985] 1
x[986] 0
x[987] 1
x[988] 1
x[989] 0
x[990] 1
x[991] 1
x[992] 0
x[993] 0
x[994] 1
x[995] 1
x[996] 1
x[997] 0
x[998] 1
x[999] 1
